
Gurobi 11.0.1 (win64) logging started Mon Apr  1 12:48:06 2024

Set parameter LogFile to value "C:\Projetos\Job_Rotation_Algorithms\Outputs\GurobiLogs\gurobi_log-output-25_ton-c249-CostaMirallesModel-NoExtraConstraint-2.log"
Gurobi Optimizer version 11.0.1 build v11.0.1rc0 (win64 - Windows 10.0 (19045.2))

CPU model: 11th Gen Intel(R) Core(TM) i7-1165G7 @ 2.80GHz, instruction set [SSE2|AVX|AVX2|AVX512]
Thread count: 4 physical cores, 8 logical processors, using up to 1 threads


Gurobi 11.0.1 (win64) logging started Mon Apr  1 21:35:55 2024

Set parameter LogFile to value "C:\Projetos\Job_Rotation_Algorithms\Outputs\GurobiLogs\gurobi_log-output-25_ton-c249-CostaMirallesModel-NoExtraConstraint-2.log"
Gurobi Optimizer version 11.0.1 build v11.0.1rc0 (win64 - Windows 10.0 (19045.2))

CPU model: 11th Gen Intel(R) Core(TM) i7-1165G7 @ 2.80GHz, instruction set [SSE2|AVX|AVX2|AVX512]
Thread count: 4 physical cores, 8 logical processors, using up to 1 threads


Gurobi 11.0.1 (win64) logging started Thu Apr  4 23:33:28 2024

Set parameter LogFile to value "C:\Projetos\Job_Rotation_Algorithms\Outputs\GurobiLogs\gurobi_log-output-25_ton-c249-CostaMirallesModel-NoExtraConstraint-2.log"
Gurobi Optimizer version 11.0.1 build v11.0.1rc0 (win64 - Windows 10.0 (19045.2))

CPU model: 11th Gen Intel(R) Core(TM) i7-1165G7 @ 2.80GHz, instruction set [SSE2|AVX|AVX2|AVX512]
Thread count: 4 physical cores, 8 logical processors, using up to 1 threads


Gurobi 11.0.1 (win64) logging started Sat Apr  6 13:03:03 2024

Set parameter LogFile to value "C:\Projetos\Job_Rotation_Algorithms\Outputs\GurobiLogs\gurobi_log-output-25_ton-c249-CostaMirallesModel-NoExtraConstraint-2.log"
Gurobi Optimizer version 11.0.1 build v11.0.1rc0 (win64 - Windows 10.0 (19045.2))

CPU model: 11th Gen Intel(R) Core(TM) i7-1165G7 @ 2.80GHz, instruction set [SSE2|AVX|AVX2|AVX512]
Thread count: 4 physical cores, 8 logical processors, using up to 1 threads


Gurobi 11.0.1 (win64) logging started Sun Apr  7 02:35:55 2024

Set parameter LogFile to value "C:\Projetos\Job_Rotation_Algorithms\Outputs\GurobiLogs\gurobi_log-output-25_ton-c249-CostaMirallesModel-NoExtraConstraint-2.log"
Gurobi Optimizer version 11.0.1 build v11.0.1rc0 (win64 - Windows 10.0 (19045.2))

CPU model: 11th Gen Intel(R) Core(TM) i7-1165G7 @ 2.80GHz, instruction set [SSE2|AVX|AVX2|AVX512]
Thread count: 4 physical cores, 8 logical processors, using up to 1 threads


Gurobi 11.0.1 (win64) logging started Sun Apr  7 09:48:51 2024

Set parameter LogFile to value "C:\Projetos\Job_Rotation_Algorithms\Outputs\GurobiLogs\gurobi_log-output-25_ton-c249-CostaMirallesModel-NoExtraConstraint-2.log"
Gurobi Optimizer version 11.0.1 build v11.0.1rc0 (win64 - Windows 10.0 (19045.2))

CPU model: 11th Gen Intel(R) Core(TM) i7-1165G7 @ 2.80GHz, instruction set [SSE2|AVX|AVX2|AVX512]
Thread count: 4 physical cores, 8 logical processors, using up to 1 threads


Gurobi 11.0.1 (win64) logging started Tue Apr  9 08:07:27 2024

Set parameter LogFile to value "C:\Projetos\Job_Rotation_Algorithms\Outputs\GurobiLogs\gurobi_log-output-25_ton-c249-CostaMirallesModel-NoExtraConstraint-2.log"
Gurobi Optimizer version 11.0.1 build v11.0.1rc0 (win64 - Windows 10.0 (19045.2))

CPU model: 11th Gen Intel(R) Core(TM) i7-1165G7 @ 2.80GHz, instruction set [SSE2|AVX|AVX2|AVX512]
Thread count: 4 physical cores, 8 logical processors, using up to 1 threads


Gurobi 11.0.1 (win64) logging started Wed Apr 10 17:37:07 2024

Set parameter LogFile to value "C:\Projetos\Job_Rotation_Algorithms\Outputs\GurobiLogs\gurobi_log-output-25_ton-c249-CostaMirallesModel-NoExtraConstraint-2.log"
Gurobi Optimizer version 11.0.1 build v11.0.1rc0 (win64 - Windows 10.0 (19045.2))

CPU model: 11th Gen Intel(R) Core(TM) i7-1165G7 @ 2.80GHz, instruction set [SSE2|AVX|AVX2|AVX512]
Thread count: 4 physical cores, 8 logical processors, using up to 1 threads


Gurobi 11.0.1 (win64) logging started Thu Apr 11 01:42:25 2024

Set parameter LogFile to value "C:\Projetos\Job_Rotation_Algorithms\Outputs\GurobiLogs\gurobi_log-output-25_ton-c249-CostaMirallesModel-NoExtraConstraint-2.log"
Gurobi Optimizer version 11.0.1 build v11.0.1rc0 (win64 - Windows 10.0 (19045.2))

CPU model: 11th Gen Intel(R) Core(TM) i7-1165G7 @ 2.80GHz, instruction set [SSE2|AVX|AVX2|AVX512]
Thread count: 4 physical cores, 8 logical processors, using up to 1 threads


Gurobi 11.0.1 (win64) logging started Sun Apr 21 02:58:59 2024

Set parameter LogFile to value "C:\Projetos\Job_Rotation_Algorithms\Outputs\GurobiLogs\gurobi_log-output-25_ton-c249-CostaMirallesModel-NoExtraConstraint-2.log"
Gurobi Optimizer version 11.0.1 build v11.0.1rc0 (win64 - Windows 10.0 (19045.2))

CPU model: 11th Gen Intel(R) Core(TM) i7-1165G7 @ 2.80GHz, instruction set [SSE2|AVX|AVX2|AVX512]
Thread count: 4 physical cores, 8 logical processors, using up to 1 threads


Gurobi 11.0.1 (win64) logging started Fri Apr 26 07:41:00 2024

Set parameter LogFile to value "C:\Projetos\Job_Rotation_Algorithms\Outputs\GurobiLogs\gurobi_log-output-25_ton-c249-CostaMirallesModel-NoExtraConstraint-2.log"
Gurobi Optimizer version 11.0.1 build v11.0.1rc0 (win64 - Windows 10.0 (19045.2))

CPU model: 11th Gen Intel(R) Core(TM) i7-1165G7 @ 2.80GHz, instruction set [SSE2|AVX|AVX2|AVX512]
Thread count: 4 physical cores, 8 logical processors, using up to 1 threads


Gurobi 11.0.1 (win64) logging started Sat Apr 27 04:32:31 2024

Set parameter LogFile to value "C:\Projetos\Job_Rotation_Algorithms\Outputs\GurobiLogs\gurobi_log-output-25_ton-c249-CostaMirallesModel-NoExtraConstraint-2.log"
Gurobi Optimizer version 11.0.1 build v11.0.1rc0 (win64 - Windows 10.0 (19045.2))

CPU model: 11th Gen Intel(R) Core(TM) i7-1165G7 @ 2.80GHz, instruction set [SSE2|AVX|AVX2|AVX512]
Thread count: 4 physical cores, 8 logical processors, using up to 1 threads


Gurobi 11.0.1 (win64) logging started Sat Apr 27 14:50:30 2024

Set parameter LogFile to value "C:\Projetos\Job_Rotation_Algorithms\Outputs\GurobiLogs\gurobi_log-output-25_ton-c249-CostaMirallesModel-NoExtraConstraint-2.log"
Gurobi Optimizer version 11.0.1 build v11.0.1rc0 (win64 - Windows 10.0 (19045.2))

CPU model: 11th Gen Intel(R) Core(TM) i7-1165G7 @ 2.80GHz, instruction set [SSE2|AVX|AVX2|AVX512]
Thread count: 4 physical cores, 8 logical processors, using up to 1 threads


Gurobi 11.0.1 (win64) logging started Mon Apr 29 06:08:07 2024

Set parameter LogFile to value "C:\Projetos\Job_Rotation_Algorithms\Outputs\GurobiLogs\gurobi_log-output-25_ton-c249-CostaMirallesModel-NoExtraConstraint-2.log"
Gurobi Optimizer version 11.0.1 build v11.0.1rc0 (win64 - Windows 10.0 (19045.2))

CPU model: 11th Gen Intel(R) Core(TM) i7-1165G7 @ 2.80GHz, instruction set [SSE2|AVX|AVX2|AVX512]
Thread count: 4 physical cores, 8 logical processors, using up to 1 threads

WLS license 901038 - registered to Bitka Analytics
Optimize a model with 2781 rows, 13474 columns and 205034 nonzeros
Model fingerprint: 0x3e6cf02e
Variable types: 2 continuous, 13472 integer (13472 binary)
Coefficient statistics:
  Matrix range     [1e+00, 3e+02]
  Objective range  [1e+00, 1e+00]
  Bounds range     [1e+00, 5e+02]
  RHS range        [1e+00, 5e+02]
Presolve added 589 rows and 0 columns
Presolve removed 0 rows and 96 columns
Presolve time: 0.85s
Presolved: 3370 rows, 13378 columns, 102800 nonzeros
Variable types: 0 continuous, 13378 integer (12703 binary)

Root relaxation: objective 1.400000e+02, 3806 iterations, 0.32 seconds (0.45 work units)

    Nodes    |    Current Node    |     Objective Bounds      |     Work
 Expl Unexpl |  Obj  Depth IntInf | Incumbent    BestBd   Gap | It/Node Time

     0     0  140.00000    0   84          -  140.00000      -     -    1s
     0     0  140.00000    0   87          -  140.00000      -     -    1s
     0     0  140.00000    0   82          -  140.00000      -     -    1s
     0     0  140.00000    0 1199          -  140.00000      -     -    2s
     0     0  140.00000    0 1127          -  140.00000      -     -    2s
     0     0  140.00000    0 1087          -  140.00000      -     -    2s
     0     0  140.00000    0 1004          -  140.00000      -     -    2s
     0     0  140.00000    0  992          -  140.00000      -     -    2s
     0     0  140.00000    0  165          -  140.00000      -     -    4s
     0     0  140.00000    0  167          -  140.00000      -     -    4s
     0     0  140.00000    0  197          -  140.00000      -     -    4s
     0     0  140.00000    0  132          -  140.00000      -     -    5s
     0     0  140.00000    0  249          -  140.00000      -     -    5s
     0     0  140.00000    0  263          -  140.00000      -     -    5s
     0     0  140.00000    0  263          -  140.00000      -     -    5s
     0     0  140.00000    0  171          -  140.00000      -     -    6s
     0     0  140.00000    0  200          -  140.00000      -     -    6s
     0     0  140.00000    0  168          -  140.00000      -     -    6s
     0     2  140.00000    0  168          -  140.00000      -     -    8s
    66    68  140.00000   38  263          -  140.00000      -   125   10s
   210   173  140.00000   38  683          -  140.00000      -   175   15s
   383   284  140.00000   56  425          -  140.00000      -   183   20s
   625   375  140.00000  106  421          -  140.00000      -   176   25s
   831   404  140.00000   45  168          -  140.00000      -   183   40s
   837   408  140.00000   64  373          -  140.00000      -   182   45s
   842   411  140.00000   55  138          -  140.00000      -   181   50s
   893   446  140.00000   35  271          -  140.00000      -  59.3   55s
   942   467  140.00000   57  132          -  140.00000      -  65.3   60s
   956   464  140.00000   62  172          -  140.00000      -  70.5   70s
   989   478  140.00000   29  243          -  140.00000      -  72.5   75s
  1095   502  139.86646   52  286          -  140.00000      -  85.2   80s
  1240   557  140.00000   39  176          -  140.00000      -  90.0   85s
  1407   615  140.00000   50   53          -  140.00000      -  96.2   90s
  1628   622  140.00000   61   80          -  140.00000      -  94.3   95s
  1826   656  140.00000   40  193          -  140.00000      -  96.8  100s
  2000   664  140.00000   46  472          -  140.00000      -  98.6  105s
  2258   759  140.00000   55  493          -  140.00000      -  96.7  110s
  2555   923  140.00000   79  133          -  140.00000      -  94.5  115s
  2838  1032  140.00000   50  275          -  140.00000      -  93.4  120s
  3137  1145 infeasible   77               -  140.00000      -  92.5  125s
  3364  1224  140.00000   61   98          -  140.00000      -  93.7  130s
  3673  1335  140.00000   43  339          -  140.00000      -  91.8  135s
  3963  1448  140.00000   74  150          -  140.00000      -  91.5  140s
  4403  1510  140.00000   50   70          -  140.00000      -  88.8  145s
  4616  1618  140.00000   70  166          -  140.00000      -  90.7  150s
  4865  1734  140.00000   73  162          -  140.00000      -  91.7  155s
  5101  1844  140.00000   81  166          -  140.00000      -  91.6  160s
  5435  1936  140.00000   60   54          -  140.00000      -  91.7  165s
  5718  2061  140.00000   82   42          -  140.00000      -  91.8  170s
  5964  2128 infeasible   88               -  140.00000      -  93.2  175s
  6228  2229  140.00000   83  167          -  140.00000      -  94.1  180s
  6519  2323  140.00000   67  131          -  140.00000      -  94.2  185s
  6765  2426  140.00000   71  324          -  140.00000      -  94.8  190s
  7185  2526 infeasible   69               -  140.00000      -  92.7  195s
  7383  2585 infeasible   86               -  140.00000      -  94.0  200s
  7657  2696 infeasible   84               -  140.00000      -  94.1  205s
  7900  2763  138.99222   81  492          -  140.00000      -  94.5  210s
  8199  2858  140.00000   76  238          -  140.00000      -  94.2  215s
  8476  2958  140.00000   59  240          -  140.00000      -  94.5  220s
  8757  3043  140.00000   81  388          -  140.00000      -  94.9  225s
  9119  3103 infeasible   69               -  140.00000      -  94.4  230s
  9442  3154  140.00000   52  324          -  140.00000      -  93.6  235s
  9645  3218  140.00000   63   71          -  140.00000      -  94.3  240s
 10132  3304 infeasible  108               -  140.00000      -  92.2  245s
 10202  3307 infeasible   78               -  140.00000      -  92.1  291s
 10450  3392  140.00000   76  307          -  140.00000      -  91.7  295s
 10829  3513  138.39469   78  258          -  140.00000      -  91.1  300s
 11132  3567  140.00000   69  190          -  140.00000      -  91.1  305s
 11215  3593 infeasible   91               -  140.00000      -  91.4  310s
 11533  3707  140.00000   94  134          -  140.00000      -  91.1  315s
 11857  3798 infeasible   98               -  140.00000      -  91.2  320s
 12137  3872  140.00000   86  199          -  140.00000      -  91.3  325s
 12549  3984 infeasible   89               -  140.00000      -  90.7  330s
 12957  4061 infeasible   50               -  140.00000      -  90.1  335s
 13189  4167 infeasible   66               -  140.00000      -  90.0  340s
 13508  4297 infeasible   66               -  140.00000      -  89.6  345s
 13584  4294  140.00000   44   89          -  140.00000      -  89.6  350s
 13800  4365  140.00000   65  225          -  140.00000      -  89.5  355s
 14115  4417 infeasible   58               -  140.00000      -  89.4  360s
 14384  4542  140.00000   60  168          -  140.00000      -  89.5  365s
 14657  4609 infeasible   81               -  140.00000      -  89.9  370s
 14973  4694  140.00000   60  113          -  140.00000      -  89.8  375s
 15295  4848  140.00000   68  175          -  140.00000      -  89.8  380s
 15495  4915  140.00000   57  181          -  140.00000      -  89.7  385s
 15811  5021  140.00000   73  418          -  140.00000      -  89.7  390s
 16052  5089  140.00000   60   82          -  140.00000      -  90.2  395s
 16354  5234 infeasible   82               -  140.00000      -  90.4  400s
 16705  5363  140.00000   69  127          -  140.00000      -  90.4  405s
 16985  5452  140.00000   65  360          -  140.00000      -  90.8  410s
 17223  5544  140.00000   78  266          -  140.00000      -  91.2  415s
 17603  5701 infeasible   79               -  140.00000      -  90.9  420s
 17883  5791  140.00000   66  134          -  140.00000      -  90.8  429s
 17891  5793  140.00000   53   82          -  140.00000      -  90.8  430s
 17973  5828 infeasible   72               -  140.00000      -  91.1  435s
 18376  5970 infeasible   85               -  140.00000      -  90.6  440s
 18795  6067 infeasible   91               -  140.00000      -  90.0  445s
 19058  6148 infeasible   78               -  140.00000      -  90.2  450s
 19405  6258 infeasible   77               -  140.00000      -  90.0  455s
 19728  6386 infeasible   75               -  140.00000      -  90.1  460s
 20154  6462 infeasible   88               -  140.00000      -  89.6  465s
 20404  6501 infeasible  108               -  140.00000      -  89.5  470s
 20643  6545 infeasible  102               -  140.00000      -  89.9  475s
 20922  6627  140.00000   54  136          -  140.00000      -  90.2  480s
 21162  6698  140.00000   73  195          -  140.00000      -  90.6  485s
 21562  6825 infeasible   80               -  140.00000      -  90.3  490s
 21797  6935  140.00000   53  149          -  140.00000      -  90.8  495s
 22086  6977  140.00000   55   98          -  140.00000      -  90.8  500s
 22481  7122 infeasible   65               -  140.00000      -  90.5  505s
 22824  7208 infeasible   75               -  140.00000      -  90.4  510s
 23143  7271 infeasible   83               -  140.00000      -  90.4  515s
 23423  7383  140.00000   68  533          -  140.00000      -  90.5  520s
 23670  7500 infeasible   68               -  140.00000      -  90.6  525s
 24049  7619 infeasible   59               -  140.00000      -  90.2  530s
 24495  7770  140.00000   41  120          -  140.00000      -  89.7  535s
 25014  7906  140.00000   50  172          -  140.00000      -  88.9  540s
 25342  8034  140.00000   48  200          -  140.00000      -  88.8  548s
 25369  8033  140.00000   54   99          -  140.00000      -  88.9  550s
 25522  8089  140.00000   70   97          -  140.00000      -  89.0  555s
 25952  8143 infeasible   59               -  140.00000      -  88.6  560s
 26326  8209 infeasible   49               -  140.00000      -  88.4  565s
 26594  8295 infeasible   63               -  140.00000      -  88.7  570s
 27011  8333 infeasible   71               -  140.00000      -  88.4  575s
 27350  8360 infeasible   63               -  140.00000      -  88.3  580s
 27615  8399  140.00000   50  148          -  140.00000      -  88.4  585s
 27949  8485 infeasible   66               -  140.00000      -  88.5  590s
 28293  8539 infeasible   63               -  140.00000      -  88.5  595s
 28716  8653 infeasible   49               -  140.00000      -  88.3  600s
 28980  8711  140.00000   30   73          -  140.00000      -  88.5  605s
 29398  8852 infeasible   87               -  140.00000      -  88.0  610s
 30017  8943 infeasible   83               -  140.00000      -  87.0  615s
 30476  9035  140.00000   39   59          -  140.00000      -  86.7  620s
 30683  9030 infeasible   68               -  140.00000      -  86.5  625s
 31033  9122  140.00000   72  114          -  140.00000      -  86.5  630s
 31281  9267  140.00000   49  238          -  140.00000      -  86.7  635s
 31531  9387 infeasible   60               -  140.00000      -  86.7  640s
 31764  9498  140.00000   89  330          -  140.00000      -  86.8  645s
 32081  9656 infeasible   73               -  140.00000      -  86.9  650s
 32383  9786  140.00000   56  255          -  140.00000      -  86.9  655s
 32466  9834  140.00000   55  164          -  140.00000      -  87.0  660s
 32510  9869 infeasible   79               -  140.00000      -  87.1  665s
 32819  9988 infeasible   69               -  140.00000      -  87.1  670s
 33170 10115 infeasible   64               -  140.00000      -  87.1  675s
 33494 10189  140.00000   69  184          -  140.00000      -  87.1  680s
 33864 10356  140.00000   58  412          -  140.00000      -  87.0  685s
 34205 10482  140.00000   42  397          -  140.00000      -  87.1  690s
 34491 10619 infeasible   70               -  140.00000      -  87.2  695s
 34975 10766 infeasible   91               -  140.00000      -  86.8  700s
 35335 10906  140.00000   65  182          -  140.00000      -  86.9  705s
 35707 11044 infeasible   93               -  140.00000      -  86.6  710s
 36053 11152 infeasible   90               -  140.00000      -  86.5  715s
 36517 11230 infeasible   80               -  140.00000      -  86.2  720s
 37026 11390  140.00000   84  165          -  140.00000      -  85.8  725s
 37736 11612  140.00000   83  171          -  140.00000      -  85.1  730s
 38152 11700  140.00000   67  391          -  140.00000      -  85.0  735s
 38763 11806 infeasible   80               -  140.00000      -  84.4  740s
 39298 11895  139.42369   63  222          -  140.00000      -  84.0  745s
 39557 11971 infeasible   70               -  140.00000      -  84.3  750s
 39593 11983  140.00000   69  125          -  140.00000      -  84.3  755s
 39865 12032 infeasible   59               -  140.00000      -  84.5  760s
 40151 12137  140.00000   60   49          -  140.00000      -  84.8  765s
 40468 12299 infeasible   76               -  140.00000      -  84.9  770s
 40807 12445 infeasible   84               -  140.00000      -  84.9  775s
 40972 12483 infeasible   69               -  140.00000      -  85.0  780s
 41170 12532 infeasible   80               -  140.00000      -  85.3  785s
 41325 12564  140.00000   55  439          -  140.00000      -  85.6  790s
 41567 12659 infeasible   67               -  140.00000      -  85.9  795s
 41896 12754  139.00000   58  188          -  140.00000      -  86.0  800s
 42488 12879  140.00000   45  367          -  140.00000      -  85.6  805s
 43029 12943 infeasible   61               -  140.00000      -  85.2  810s
 43058 12933  140.00000   55   81          -  140.00000      -  85.3  815s
 43400 12973 infeasible   73               -  140.00000      -  85.2  820s
 43678 13019 infeasible   66               -  140.00000      -  85.5  825s
 44010 13033 infeasible   53               -  140.00000      -  85.5  830s
 44202 13086  140.00000   61  132          -  140.00000      -  85.8  835s
 44468 13195 infeasible   67               -  140.00000      -  86.0  840s
 44664 13241 infeasible   75               -  140.00000      -  86.2  845s
 45074 13371 infeasible   65               -  140.00000      -  86.0  850s
 45665 13407 infeasible   71               -  140.00000      -  85.4  855s
 45909 13416 infeasible   83               -  140.00000      -  85.3  860s
 46150 13514  140.00000   52  274          -  140.00000      -  85.4  865s
 46499 13619 infeasible   66               -  140.00000      -  85.4  870s
 46839 13681  140.00000   67  133          -  140.00000      -  85.3  875s
 47125 13745  140.00000   74  270          -  140.00000      -  85.3  880s
 47487 13773 infeasible   76               -  140.00000      -  85.4  885s
 47769 13771 infeasible   77               -  140.00000      -  85.3  890s
 48076 13828 infeasible   61               -  140.00000      -  85.2  895s
 48412 13878  139.00000   62  229          -  140.00000      -  85.2  900s
 48870 13974  140.00000   94  423          -  140.00000      -  84.9  905s
 48881 13972  140.00000   93  103          -  140.00000      -  85.0  910s
 48923 13968 infeasible   44               -  140.00000      -  85.1  915s
 49262 14067  140.00000   85  225          -  140.00000      -  85.1  920s
 49549 14138 infeasible   52               -  140.00000      -  85.2  925s
 50051 14328  140.00000   57  219          -  140.00000      -  84.9  930s
 50425 14439  140.00000   51  282          -  140.00000      -  84.9  935s
 50966 14638  140.00000   57  112          -  140.00000      -  84.6  940s
 51321 14731  140.00000   68  115          -  140.00000      -  84.3  945s
 51834 14843  140.00000   57  202          -  140.00000      -  83.9  950s
 52256 14900  140.00000   76   85          -  140.00000      -  83.7  955s
 52808 14951  140.00000   67  207          -  140.00000      -  83.3  960s
 53156 15045  140.00000   46  168          -  140.00000      -  83.3  965s
 53491 15156  140.00000   59  230          -  140.00000      -  83.3  970s
 53874 15258 infeasible   59               -  140.00000      -  83.2  975s
 54329 15350  140.00000   54  347          -  140.00000      -  83.0  980s
 54640 15444  140.00000   70  113          -  140.00000      -  83.1  985s
 54859 15476  140.00000   55  242          -  140.00000      -  83.3  990s
 55221 15590 infeasible   71               -  140.00000      -  83.3  995s
 55558 15671 infeasible   90               -  140.00000      -  83.3 1000s
 55948 15717  140.00000   77   85          -  140.00000      -  83.2 1005s
 56185 15726  140.00000   79  111          -  140.00000      -  83.1 1010s
 56657 15795  140.00000   87  271          -  140.00000      -  83.0 1015s
 57165 15856 infeasible   77               -  140.00000      -  82.7 1020s
 57706 15896 infeasible   93               -  140.00000      -  82.5 1025s
 58168 15899  140.00000   88  252          -  140.00000      -  82.4 1030s
 58553 15933  140.00000   66  286          -  140.00000      -  82.3 1035s
 58926 16029  140.00000   64  436          -  140.00000      -  82.2 1040s
 59042 16074  140.00000   67  166          -  140.00000      -  82.1 1045s
 59154 16128 infeasible   78               -  140.00000      -  82.3 1050s
 59548 16227  140.00000   70  113          -  140.00000      -  82.3 1055s
 59914 16309  140.00000   84  208          -  140.00000      -  82.3 1060s
 60295 16361 infeasible   95               -  140.00000      -  82.3 1065s
 60674 16433 infeasible   66               -  140.00000      -  82.3 1070s
 60997 16464  140.00000   54  417          -  140.00000      -  82.3 1075s
 61212 16573  140.00000   71  215          -  140.00000      -  82.3 1080s
 61509 16637  140.00000   76  195          -  140.00000      -  82.3 1085s
 61807 16716  140.00000   69  363          -  140.00000      -  82.3 1090s
 62096 16795 infeasible   88               -  140.00000      -  82.4 1095s
 62541 16863  140.00000   63  374          -  140.00000      -  82.3 1100s
 62803 16915 infeasible   48               -  140.00000      -  82.4 1105s
 63053 16986 infeasible   75               -  140.00000      -  82.6 1110s
 63372 17079  140.00000   77  406          -  140.00000      -  82.6 1115s
 63685 17170  140.00000   65  312          -  140.00000      -  82.7 1120s
 63768 17213  140.00000   68  180          -  140.00000      -  82.7 1127s
 63788 17223  140.00000   71  141          -  140.00000      -  82.8 1130s
 64083 17308  140.00000   70   87          -  140.00000      -  82.7 1135s
 64464 17373 infeasible   97               -  140.00000      -  82.7 1140s
 64759 17472  140.00000   73  380          -  140.00000      -  82.8 1145s
 65112 17572  140.00000   73  140          -  140.00000      -  82.8 1150s
 65534 17764  140.00000   71  477          -  140.00000      -  82.7 1155s
 65931 17954  140.00000   59  374          -  140.00000      -  82.6 1160s
 66313 18110  139.73691   92  262          -  140.00000      -  82.5 1165s
 66740 18248 infeasible   76               -  140.00000      -  82.4 1170s
 67276 18445  140.00000   90  147          -  140.00000      -  82.1 1175s
 67781 18650 infeasible   75               -  140.00000      -  81.9 1180s
 68304 18887 infeasible  109               -  140.00000      -  81.8 1185s
 68812 19082  140.00000   72  166          -  140.00000      -  81.6 1190s
 69342 19213 infeasible  103               -  140.00000      -  81.4 1195s
 69822 19376  140.00000   74  270          -  140.00000      -  81.3 1200s
 70289 19557 infeasible   91               -  140.00000      -  81.3 1205s
 70851 19708 infeasible   91               -  140.00000      -  81.1 1210s
 71203 19723  140.00000   62  318          -  140.00000      -  81.1 1215s
 71434 19840  140.00000   59  486          -  140.00000      -  81.1 1220s
 71855 19951  140.00000   68  284          -  140.00000      -  81.1 1225s
 72407 20073  140.00000   85   96          -  140.00000      -  80.9 1230s
 72686 20152  140.00000   81  266          -  140.00000      -  80.9 1235s
 73175 20248 infeasible   80               -  140.00000      -  80.8 1240s
 73435 20330 infeasible   66               -  140.00000      -  81.0 1245s
 73628 20381  140.00000   64  128          -  140.00000      -  81.1 1253s
 73638 20379 infeasible   62               -  140.00000      -  81.1 1255s
 73821 20435 infeasible   95               -  140.00000      -  81.1 1260s
 74191 20557  140.00000   62  129          -  140.00000      -  81.1 1265s
 74639 20643 infeasible   80               -  140.00000      -  81.1 1270s
 75136 20826  140.00000   77  478          -  140.00000      -  81.0 1275s
 75521 20962  140.00000   85  269          -  140.00000      -  81.0 1280s
H75796 19432                     139.0000000  140.00000  0.72%  80.9 1282s
 75798 19422  140.00000   77  168  139.00000  140.00000  0.72%  80.9 1372s
 75801 19424  140.00000   70  129  139.00000  140.00000  0.72%  80.9 1375s
H75802 18453                     140.0000000  140.00000  0.00%  80.9 1377s

Cutting planes:
  Cover: 78
  Implied bound: 11
  Clique: 67
  MIR: 7
  StrongCG: 3
  Flow cover: 33
  GUB cover: 8
  Zero half: 3
  Network: 1
  RLT: 1
  Relax-and-lift: 31
  BQP: 1

Explored 75802 nodes (6335760 simplex iterations) in 1377.37 seconds (1178.08 work units)
Thread count was 1 (of 8 available processors)

Solution count 2: 140 139 

Optimal solution found (tolerance 1.00e-03)
Best objective 1.400000000000e+02, best bound 1.400000000000e+02, gap 0.0000%
